(set-logic HORN)
(declare-datatypes ((Nat_0 0)) (((Z_0 ) (S_0 (unS_0 Nat_0)))))
(declare-fun diseqNat_0 (Nat_0 Nat_0) Bool)
(declare-fun unS_1 (Nat_0 Nat_0) Bool)
(declare-fun isZ_0 (Nat_0) Bool)
(declare-fun isS_0 (Nat_0) Bool)
(assert (forall ((x_145 Nat_0) (x_144 Nat_0))
	(=> (= x_145 (S_0 x_144))
	    (unS_1 x_144 x_145))))
(assert (isZ_0 Z_0))
(assert (forall ((x_146 Nat_0))
	(isS_0 (S_0 x_146))))
(assert (forall ((x_147 Nat_0))
	(diseqNat_0 Z_0 (S_0 x_147))))
(assert (forall ((x_148 Nat_0))
	(diseqNat_0 (S_0 x_148) Z_0)))
(assert (forall ((x_149 Nat_0) (x_150 Nat_0))
	(=> (diseqNat_0 x_149 x_150)
	    (diseqNat_0 (S_0 x_149) (S_0 x_150)))))
(declare-fun add_0 (Nat_0 Nat_0 Nat_0) Bool)
(declare-fun minus_0 (Nat_0 Nat_0 Nat_0) Bool)
(declare-fun le_0 (Nat_0 Nat_0) Bool)
(declare-fun ge_0 (Nat_0 Nat_0) Bool)
(declare-fun lt_0 (Nat_0 Nat_0) Bool)
(declare-fun gt_0 (Nat_0 Nat_0) Bool)
(declare-fun mult_0 (Nat_0 Nat_0 Nat_0) Bool)
(declare-fun div_0 (Nat_0 Nat_0 Nat_0) Bool)
(declare-fun mod_0 (Nat_0 Nat_0 Nat_0) Bool)
(assert (forall ((y_0 Nat_0))
	(add_0 y_0 Z_0 y_0)))
(assert (forall ((x_131 Nat_0) (y_0 Nat_0) (r_0 Nat_0))
	(=> (add_0 r_0 x_131 y_0)
	    (add_0 (S_0 r_0) (S_0 x_131) y_0))))
(assert (forall ((y_0 Nat_0))
	(minus_0 Z_0 Z_0 y_0)))
(assert (forall ((x_131 Nat_0) (y_0 Nat_0) (r_0 Nat_0))
	(=> (minus_0 r_0 x_131 y_0)
	    (minus_0 (S_0 r_0) (S_0 x_131) y_0))))
(assert (forall ((y_0 Nat_0))
	(le_0 Z_0 y_0)))
(assert (forall ((x_131 Nat_0) (y_0 Nat_0))
	(=> (le_0 x_131 y_0)
	    (le_0 (S_0 x_131) (S_0 y_0)))))
(assert (forall ((y_0 Nat_0))
	(ge_0 y_0 Z_0)))
(assert (forall ((x_131 Nat_0) (y_0 Nat_0))
	(=> (ge_0 x_131 y_0)
	    (ge_0 (S_0 x_131) (S_0 y_0)))))
(assert (forall ((y_0 Nat_0))
	(lt_0 Z_0 (S_0 y_0))))
(assert (forall ((x_131 Nat_0) (y_0 Nat_0))
	(=> (lt_0 x_131 y_0)
	    (lt_0 (S_0 x_131) (S_0 y_0)))))
(assert (forall ((y_0 Nat_0))
	(gt_0 (S_0 y_0) Z_0)))
(assert (forall ((x_131 Nat_0) (y_0 Nat_0))
	(=> (gt_0 x_131 y_0)
	    (gt_0 (S_0 x_131) (S_0 y_0)))))
(assert (forall ((y_0 Nat_0))
	(mult_0 Z_0 Z_0 y_0)))
(assert (forall ((x_131 Nat_0) (y_0 Nat_0) (r_0 Nat_0) (z_1 Nat_0))
	(=>	(and (mult_0 r_0 x_131 y_0)
			(add_0 z_1 r_0 y_0))
		(mult_0 z_1 (S_0 x_131) y_0))))
(assert (forall ((x_131 Nat_0) (y_0 Nat_0))
	(=> (lt_0 x_131 y_0)
	    (div_0 Z_0 x_131 y_0))))
(assert (forall ((x_131 Nat_0) (y_0 Nat_0) (r_0 Nat_0) (z_1 Nat_0))
	(=>	(and (ge_0 x_131 y_0)
			(minus_0 z_1 x_131 y_0)
			(div_0 r_0 z_1 y_0))
		(div_0 (S_0 r_0) x_131 y_0))))
(assert (forall ((x_131 Nat_0) (y_0 Nat_0))
	(=> (lt_0 x_131 y_0)
	    (mod_0 x_131 x_131 y_0))))
(assert (forall ((x_131 Nat_0) (y_0 Nat_0) (r_0 Nat_0) (z_1 Nat_0))
	(=>	(and (ge_0 x_131 y_0)
			(minus_0 z_1 x_131 y_0)
			(mod_0 r_0 z_1 y_0))
		(mod_0 r_0 x_131 y_0))))
(declare-fun and_0 (Bool Bool Bool) Bool)
(declare-fun or_0 (Bool Bool Bool) Bool)
(declare-fun hence_0 (Bool Bool Bool) Bool)
(declare-fun not_0 (Bool Bool) Bool)
(assert (and_0 false false false))
(assert (and_0 false true false))
(assert (and_0 false false true))
(assert (and_0 true true true))
(assert (or_0 false false false))
(assert (or_0 true true false))
(assert (or_0 true false true))
(assert (or_0 true true true))
(assert (hence_0 true false false))
(assert (hence_0 false true false))
(assert (hence_0 true false true))
(assert (hence_0 true true true))
(assert (not_0 true false))
(assert (not_0 false true))
(declare-datatypes ((MutInt_0 0)) (((mutInt_1 (curInt_0 Nat_0) (retInt_0 Nat_0)))))
(declare-fun diseqMutInt_0 (MutInt_0 MutInt_0) Bool)
(declare-fun curInt_1 (Nat_0 MutInt_0) Bool)
(declare-fun retInt_1 (Nat_0 MutInt_0) Bool)
(declare-fun ismutInt_0 (MutInt_0) Bool)
(assert (forall ((x_153 MutInt_0) (x_151 Nat_0) (x_152 Nat_0))
	(=> (= x_153 (mutInt_1 x_151 x_152))
	    (curInt_1 x_151 x_153))))
(assert (forall ((x_153 MutInt_0) (x_151 Nat_0) (x_152 Nat_0))
	(=> (= x_153 (mutInt_1 x_151 x_152))
	    (retInt_1 x_152 x_153))))
(assert (forall ((x_154 Nat_0) (x_155 Nat_0))
	(ismutInt_0 (mutInt_1 x_154 x_155))))
(assert (forall ((x_156 Nat_0) (x_157 Nat_0) (x_158 Nat_0) (x_159 Nat_0))
	(=> (diseqNat_0 x_156 x_158)
	    (diseqMutInt_0 (mutInt_1 x_156 x_157) (mutInt_1 x_158 x_159)))))
(assert (forall ((x_156 Nat_0) (x_157 Nat_0) (x_158 Nat_0) (x_159 Nat_0))
	(=> (diseqNat_0 x_157 x_159)
	    (diseqMutInt_0 (mutInt_1 x_156 x_157) (mutInt_1 x_158 x_159)))))
(declare-fun lingerdecboundthree_0 (Nat_0 MutInt_0 MutInt_0 MutInt_0) Bool)
(declare-fun lingerdecboundthree_1 (Nat_0 MutInt_0 MutInt_0 MutInt_0 Bool) Bool)
(declare-fun lingerdecboundthree_2 (Nat_0 MutInt_0 MutInt_0 MutInt_0 Nat_0 MutInt_0 MutInt_0 MutInt_0 Bool) Bool)
(declare-fun lingerdecboundthree_3 (Nat_0 MutInt_0 MutInt_0 MutInt_0 Nat_0 MutInt_0 MutInt_0 MutInt_0 Bool Bool) Bool)
(declare-fun lingerdecboundthree_4 (Nat_0 MutInt_0 MutInt_0 MutInt_0 Nat_0 MutInt_0 MutInt_0 MutInt_0 Bool Bool Bool) Bool)
(declare-fun main_0 (Bool) Bool)
(declare-fun main_1 (Nat_0 Nat_0 Nat_0 Nat_0 Nat_0 Bool Bool) Bool)
(declare-fun main_2 (Bool Bool) Bool)
(declare-fun main_3 (Nat_0 Nat_0 Nat_0 Nat_0 Nat_0 Bool Bool Bool) Bool)
(assert (forall ((x_0 Nat_0) (x_1 MutInt_0) (x_2 MutInt_0) (x_3 MutInt_0))
	(=>	(and (lingerdecboundthree_1 x_0 x_1 x_2 x_3 true)
			(= x_0 Z_0))
		(lingerdecboundthree_0 x_0 x_1 x_2 x_3))))
(assert (forall ((x_0 Nat_0) (x_1 MutInt_0) (x_2 MutInt_0) (x_3 MutInt_0))
	(=>	(and (lingerdecboundthree_1 x_0 x_1 x_2 x_3 false)
			(diseqNat_0 x_0 Z_0))
		(lingerdecboundthree_0 x_0 x_1 x_2 x_3))))
(assert (forall ((x_4 Nat_0) (x_5 MutInt_0) (x_6 MutInt_0) (x_7 MutInt_0) (x_8 Nat_0) (x_9 Bool) (x_10 MutInt_0) (x_11 MutInt_0) (x_12 MutInt_0) (x_132 Nat_0) (x_133 Nat_0) (x_134 Nat_0) (x_160 Nat_0) (x_161 Nat_0) (x_162 Nat_0) (x_163 Nat_0) (x_164 Nat_0) (x_165 Nat_0))
	(=>	(and (lingerdecboundthree_2 x_4 x_10 x_11 x_12 x_8 (mutInt_1 x_132 x_160) (mutInt_1 x_133 x_161) (mutInt_1 x_134 x_162) x_9)
			(minus_0 x_132 x_163 (S_0 Z_0))
			(minus_0 x_133 x_164 (S_0 (S_0 Z_0)))
			(minus_0 x_134 x_165 (S_0 (S_0 (S_0 Z_0))))
			(retInt_1 x_160 x_5)
			(retInt_1 x_161 x_6)
			(retInt_1 x_162 x_7)
			(curInt_1 x_163 x_5)
			(curInt_1 x_164 x_6)
			(curInt_1 x_165 x_7))
		(lingerdecboundthree_1 x_4 x_5 x_6 x_7 false))))
(assert (forall ((x_13 Nat_0) (x_14 MutInt_0) (x_15 MutInt_0) (x_16 MutInt_0) (x_166 Nat_0) (x_167 Nat_0) (x_168 Nat_0) (x_169 Nat_0) (x_170 Nat_0) (x_171 Nat_0))
	(=>	(and (= x_166 x_167)
			(= x_168 x_169)
			(= x_170 x_171)
			(retInt_1 x_166 x_15)
			(curInt_1 x_167 x_15)
			(retInt_1 x_168 x_16)
			(curInt_1 x_169 x_16)
			(retInt_1 x_170 x_14)
			(curInt_1 x_171 x_14))
		(lingerdecboundthree_1 x_13 x_14 x_15 x_16 true))))
(assert (forall ((x_17 Nat_0) (x_18 MutInt_0) (x_19 MutInt_0) (x_20 MutInt_0) (x_21 Nat_0) (x_22 MutInt_0) (x_23 MutInt_0) (x_24 MutInt_0) (x_25 Bool))
	(=> (lingerdecboundthree_3 x_17 x_18 x_19 x_20 x_21 x_22 x_23 x_24 false x_25)
	    (lingerdecboundthree_2 x_17 x_18 x_19 x_20 x_21 x_22 x_23 x_24 false))))
(assert (forall ((x_26 Nat_0) (x_27 MutInt_0) (x_28 MutInt_0) (x_29 MutInt_0) (x_30 Nat_0) (x_31 MutInt_0) (x_32 MutInt_0) (x_33 MutInt_0) (x_34 Nat_0) (x_35 Nat_0) (x_36 Nat_0) (x_37 Nat_0) (x_38 Nat_0) (x_135 Nat_0) (x_172 Nat_0) (x_173 Nat_0) (x_174 Nat_0) (x_175 Nat_0) (x_176 Nat_0) (x_177 Nat_0) (x_178 Nat_0) (x_179 Nat_0) (x_180 Nat_0) (x_181 Nat_0) (x_182 Nat_0) (x_183 Nat_0))
	(=>	(and (= x_172 x_173)
			(= x_34 x_35)
			(lingerdecboundthree_0 x_135 (mutInt_1 x_30 x_36) (mutInt_1 x_174 x_37) (mutInt_1 x_175 x_38))
			(= x_176 x_38)
			(= x_177 x_37)
			(= x_35 x_36)
			(= x_178 x_179)
			(= x_180 x_181)
			(= x_182 x_183)
			(minus_0 x_135 x_26 (S_0 Z_0))
			(retInt_1 x_172 x_31)
			(curInt_1 x_173 x_31)
			(curInt_1 x_174 x_32)
			(curInt_1 x_175 x_33)
			(retInt_1 x_176 x_33)
			(retInt_1 x_177 x_32)
			(retInt_1 x_178 x_29)
			(curInt_1 x_179 x_29)
			(retInt_1 x_180 x_28)
			(curInt_1 x_181 x_28)
			(retInt_1 x_182 x_27)
			(curInt_1 x_183 x_27))
		(lingerdecboundthree_2 x_26 x_27 x_28 x_29 x_30 x_31 x_32 x_33 true))))
(assert (forall ((x_39 Nat_0) (x_40 MutInt_0) (x_41 MutInt_0) (x_42 MutInt_0) (x_43 Nat_0) (x_44 MutInt_0) (x_45 MutInt_0) (x_46 MutInt_0) (x_47 Bool) (x_48 Bool))
	(=> (lingerdecboundthree_4 x_39 x_40 x_41 x_42 x_43 x_44 x_45 x_46 x_47 false x_48)
	    (lingerdecboundthree_3 x_39 x_40 x_41 x_42 x_43 x_44 x_45 x_46 x_47 false))))
(assert (forall ((x_49 Nat_0) (x_50 MutInt_0) (x_51 MutInt_0) (x_52 MutInt_0) (x_53 Nat_0) (x_54 MutInt_0) (x_55 MutInt_0) (x_56 MutInt_0) (x_57 Bool) (x_58 Nat_0) (x_59 Nat_0) (x_60 Nat_0) (x_61 Nat_0) (x_62 Nat_0) (x_136 Nat_0) (x_184 Nat_0) (x_185 Nat_0) (x_186 Nat_0) (x_187 Nat_0) (x_188 Nat_0) (x_189 Nat_0) (x_190 Nat_0) (x_191 Nat_0) (x_192 Nat_0) (x_193 Nat_0) (x_194 Nat_0) (x_195 Nat_0))
	(=>	(and (= x_184 x_185)
			(= x_58 x_59)
			(lingerdecboundthree_0 x_136 (mutInt_1 x_186 x_60) (mutInt_1 x_53 x_61) (mutInt_1 x_187 x_62))
			(= x_188 x_62)
			(= x_59 x_61)
			(= x_189 x_60)
			(= x_190 x_191)
			(= x_192 x_193)
			(= x_194 x_195)
			(minus_0 x_136 x_49 (S_0 Z_0))
			(retInt_1 x_184 x_55)
			(curInt_1 x_185 x_55)
			(curInt_1 x_186 x_54)
			(curInt_1 x_187 x_56)
			(retInt_1 x_188 x_56)
			(retInt_1 x_189 x_54)
			(retInt_1 x_190 x_51)
			(curInt_1 x_191 x_51)
			(retInt_1 x_192 x_50)
			(curInt_1 x_193 x_50)
			(retInt_1 x_194 x_52)
			(curInt_1 x_195 x_52))
		(lingerdecboundthree_3 x_49 x_50 x_51 x_52 x_53 x_54 x_55 x_56 x_57 true))))
(assert (forall ((x_63 Nat_0) (x_64 MutInt_0) (x_65 MutInt_0) (x_66 MutInt_0) (x_67 Nat_0) (x_68 MutInt_0) (x_69 MutInt_0) (x_70 MutInt_0) (x_71 Bool) (x_72 Bool) (x_73 Nat_0) (x_74 Nat_0) (x_75 Nat_0) (x_137 Nat_0) (x_196 Nat_0) (x_197 Nat_0) (x_198 Nat_0) (x_199 Nat_0) (x_200 Nat_0) (x_201 Nat_0) (x_202 Nat_0) (x_203 Nat_0) (x_204 Nat_0) (x_205 Nat_0) (x_206 Nat_0) (x_207 Nat_0))
	(=>	(and (lingerdecboundthree_0 x_137 (mutInt_1 x_196 x_73) (mutInt_1 x_197 x_74) (mutInt_1 x_198 x_75))
			(= x_199 x_75)
			(= x_200 x_74)
			(= x_201 x_73)
			(= x_202 x_203)
			(= x_204 x_205)
			(= x_206 x_207)
			(minus_0 x_137 x_63 (S_0 Z_0))
			(curInt_1 x_196 x_68)
			(curInt_1 x_197 x_69)
			(curInt_1 x_198 x_70)
			(retInt_1 x_199 x_70)
			(retInt_1 x_200 x_69)
			(retInt_1 x_201 x_68)
			(retInt_1 x_202 x_66)
			(curInt_1 x_203 x_66)
			(retInt_1 x_204 x_65)
			(curInt_1 x_205 x_65)
			(retInt_1 x_206 x_64)
			(curInt_1 x_207 x_64))
		(lingerdecboundthree_4 x_63 x_64 x_65 x_66 x_67 x_68 x_69 x_70 x_71 x_72 false))))
(assert (forall ((x_76 Nat_0) (x_77 MutInt_0) (x_78 MutInt_0) (x_79 MutInt_0) (x_80 Nat_0) (x_81 MutInt_0) (x_82 MutInt_0) (x_83 MutInt_0) (x_84 Bool) (x_85 Bool) (x_86 Nat_0) (x_87 Nat_0) (x_88 Nat_0) (x_89 Nat_0) (x_90 Nat_0) (x_138 Nat_0) (x_208 Nat_0) (x_209 Nat_0) (x_210 Nat_0) (x_211 Nat_0) (x_212 Nat_0) (x_213 Nat_0) (x_214 Nat_0) (x_215 Nat_0) (x_216 Nat_0) (x_217 Nat_0) (x_218 Nat_0) (x_219 Nat_0))
	(=>	(and (= x_208 x_209)
			(= x_86 x_87)
			(lingerdecboundthree_0 x_138 (mutInt_1 x_210 x_88) (mutInt_1 x_211 x_89) (mutInt_1 x_80 x_90))
			(= x_87 x_90)
			(= x_212 x_89)
			(= x_213 x_88)
			(= x_214 x_215)
			(= x_216 x_217)
			(= x_218 x_219)
			(minus_0 x_138 x_76 (S_0 Z_0))
			(retInt_1 x_208 x_83)
			(curInt_1 x_209 x_83)
			(curInt_1 x_210 x_81)
			(curInt_1 x_211 x_82)
			(retInt_1 x_212 x_82)
			(retInt_1 x_213 x_81)
			(retInt_1 x_214 x_79)
			(curInt_1 x_215 x_79)
			(retInt_1 x_216 x_78)
			(curInt_1 x_217 x_78)
			(retInt_1 x_218 x_77)
			(curInt_1 x_219 x_77))
		(lingerdecboundthree_4 x_76 x_77 x_78 x_79 x_80 x_81 x_82 x_83 x_84 x_85 true))))
(assert (forall ((x_91 Bool) (x_92 Nat_0) (x_93 Nat_0) (x_94 Nat_0) (x_95 Nat_0) (x_96 Nat_0) (x_97 Nat_0) (x_98 Nat_0) (x_99 Nat_0) (x_100 Nat_0) (x_101 Nat_0))
	(=>	(and (lingerdecboundthree_0 x_92 (mutInt_1 x_93 x_97) (mutInt_1 x_94 x_99) (mutInt_1 x_95 x_101))
			(= x_100 x_101)
			(= x_98 x_99)
			(= x_96 x_97)
			(main_1 x_92 x_96 x_98 x_100 x_93 true x_91)
			(ge_0 x_93 x_96))
		(main_0 x_91))))
(assert (forall ((x_91 Bool) (x_92 Nat_0) (x_93 Nat_0) (x_94 Nat_0) (x_95 Nat_0) (x_96 Nat_0) (x_97 Nat_0) (x_98 Nat_0) (x_99 Nat_0) (x_100 Nat_0) (x_101 Nat_0))
	(=>	(and (lingerdecboundthree_0 x_92 (mutInt_1 x_93 x_97) (mutInt_1 x_94 x_99) (mutInt_1 x_95 x_101))
			(= x_100 x_101)
			(= x_98 x_99)
			(= x_96 x_97)
			(main_1 x_92 x_96 x_98 x_100 x_93 false x_91)
			(lt_0 x_93 x_96))
		(main_0 x_91))))
(assert (forall ((x_102 Nat_0) (x_103 Nat_0) (x_104 Nat_0) (x_105 Nat_0) (x_106 Nat_0) (x_107 Bool))
	(=> (main_2 true x_107)
	    (main_1 x_102 x_103 x_104 x_105 x_106 false x_107))))
(assert (forall ((x_108 Nat_0) (x_109 Nat_0) (x_110 Nat_0) (x_111 Nat_0) (x_112 Nat_0) (x_113 Bool) (x_139 Nat_0) (x_140 Nat_0))
	(=>	(and (main_3 x_108 x_109 x_110 x_111 x_112 true true x_113)
			(lt_0 x_139 x_140)
			(minus_0 x_139 x_112 x_109)
			(mult_0 x_140 (S_0 (S_0 (S_0 Z_0))) x_108))
		(main_1 x_108 x_109 x_110 x_111 x_112 true x_113))))
(assert (forall ((x_108 Nat_0) (x_109 Nat_0) (x_110 Nat_0) (x_111 Nat_0) (x_112 Nat_0) (x_113 Bool) (x_141 Nat_0) (x_142 Nat_0))
	(=>	(and (main_3 x_108 x_109 x_110 x_111 x_112 true false x_113)
			(ge_0 x_141 x_142)
			(minus_0 x_141 x_112 x_109)
			(mult_0 x_142 (S_0 (S_0 (S_0 Z_0))) x_108))
		(main_1 x_108 x_109 x_110 x_111 x_112 true x_113))))
(assert (forall ((x_114 Nat_0) (x_115 Nat_0) (x_116 Nat_0) (x_117 Nat_0) (x_118 Nat_0) (x_119 Bool) (x_120 Bool))
	(=> (main_2 true x_120)
	    (main_3 x_114 x_115 x_116 x_117 x_118 x_119 false x_120))))
(assert (forall ((x_121 Nat_0) (x_122 Nat_0) (x_123 Nat_0) (x_124 Nat_0) (x_125 Nat_0) (x_126 Bool) (x_127 Bool))
	(=> (main_2 false x_127)
	    (main_3 x_121 x_122 x_123 x_124 x_125 x_126 true x_127))))
(assert (forall ((x_128 Bool))
	(=> (= x_128 false)
	    (main_2 false x_128))))
(assert (forall ((x_129 Bool))
	(=> (= x_129 true)
	    (main_2 true x_129))))
(assert (forall ((x_130 Nat_0))
	(=> (main_0 true)
	    false)))
(check-sat)
